\ LP format - for model browsing. Use MPS format to capture full model detail.
Minimize
  2 e[0,1] + 3 e[0,2] + 4 e[0,3] + 5 e[0,4] + 6 e[0,5] + 7 e[0,6] + 8 e[0,7]
   + 9 e[0,8] + 10 e[0,9] + 11 e[0,10] + 12 e[0,11] + 13 e[0,12]
   + 14 e[0,13] + 15 e[0,14] + 16 e[0,15] + 17 e[0,16] + 18 e[0,17]
   + 19 e[0,18] + 20 e[0,19] + 2 e[1,0] + 4 e[1,2] + 5 e[1,3] + 6 e[1,4]
   + 7 e[1,5] + 8 e[1,6] + 9 e[1,7] + 10 e[1,8] + 11 e[1,9] + 12 e[1,10]
   + 13 e[1,11] + 14 e[1,12] + 15 e[1,13] + 16 e[1,14] + 17 e[1,15]
   + 18 e[1,16] + 19 e[1,17] + 20 e[1,18] + 21 e[1,19] + 3 e[2,0]
   + 4 e[2,1] + 6 e[2,3] + 7 e[2,4] + 8 e[2,5] + 9 e[2,6] + 10 e[2,7]
   + 11 e[2,8] + 12 e[2,9] + 13 e[2,10] + 14 e[2,11] + 15 e[2,12]
   + 16 e[2,13] + 17 e[2,14] + 18 e[2,15] + 19 e[2,16] + 20 e[2,17]
   + 21 e[2,18] + 22 e[2,19] + 4 e[3,0] + 5 e[3,1] + 6 e[3,2] + 8 e[3,4]
   + 9 e[3,5] + 10 e[3,6] + 11 e[3,7] + 12 e[3,8] + 13 e[3,9] + 14 e[3,10]
   + 15 e[3,11] + 16 e[3,12] + 17 e[3,13] + 18 e[3,14] + 19 e[3,15]
   + 20 e[3,16] + 21 e[3,17] + 22 e[3,18] + 23 e[3,19] + 5 e[4,0]
   + 6 e[4,1] + 7 e[4,2] + 8 e[4,3] + 10 e[4,5] + 11 e[4,6] + 12 e[4,7]
   + 13 e[4,8] + 14 e[4,9] + 15 e[4,10] + 16 e[4,11] + 17 e[4,12]
   + 18 e[4,13] + 19 e[4,14] + 20 e[4,15] + 21 e[4,16] + 22 e[4,17]
   + 23 e[4,18] + 24 e[4,19] + 6 e[5,0] + 7 e[5,1] + 8 e[5,2] + 9 e[5,3]
   + 10 e[5,4] + 12 e[5,6] + 13 e[5,7] + 14 e[5,8] + 15 e[5,9] + 16 e[5,10]
   + 17 e[5,11] + 18 e[5,12] + 19 e[5,13] + 20 e[5,14] + 21 e[5,15]
   + 22 e[5,16] + 23 e[5,17] + 24 e[5,18] + 25 e[5,19] + 7 e[6,0]
   + 8 e[6,1] + 9 e[6,2] + 10 e[6,3] + 11 e[6,4] + 12 e[6,5] + 14 e[6,7]
   + 15 e[6,8] + 16 e[6,9] + 17 e[6,10] + 18 e[6,11] + 19 e[6,12]
   + 20 e[6,13] + 21 e[6,14] + 22 e[6,15] + 23 e[6,16] + 24 e[6,17]
   + 25 e[6,18] + 26 e[6,19] + 8 e[7,0] + 9 e[7,1] + 10 e[7,2] + 11 e[7,3]
   + 12 e[7,4] + 13 e[7,5] + 14 e[7,6] + 16 e[7,8] + 17 e[7,9] + 18 e[7,10]
   + 19 e[7,11] + 20 e[7,12] + 21 e[7,13] + 22 e[7,14] + 23 e[7,15]
   + 24 e[7,16] + 25 e[7,17] + 26 e[7,18] + 27 e[7,19] + 9 e[8,0]
   + 10 e[8,1] + 11 e[8,2] + 12 e[8,3] + 13 e[8,4] + 14 e[8,5] + 15 e[8,6]
   + 16 e[8,7] + 18 e[8,9] + 19 e[8,10] + 20 e[8,11] + 21 e[8,12]
   + 22 e[8,13] + 23 e[8,14] + 24 e[8,15] + 25 e[8,16] + 26 e[8,17]
   + 27 e[8,18] + 28 e[8,19] + 10 e[9,0] + 11 e[9,1] + 12 e[9,2]
   + 13 e[9,3] + 14 e[9,4] + 15 e[9,5] + 16 e[9,6] + 17 e[9,7] + 18 e[9,8]
   + 20 e[9,10] + 21 e[9,11] + 22 e[9,12] + 23 e[9,13] + 24 e[9,14]
   + 25 e[9,15] + 26 e[9,16] + 27 e[9,17] + 28 e[9,18] + 29 e[9,19]
   + 11 e[10,0] + 12 e[10,1] + 13 e[10,2] + 14 e[10,3] + 15 e[10,4]
   + 16 e[10,5] + 17 e[10,6] + 18 e[10,7] + 19 e[10,8] + 20 e[10,9]
   + 22 e[10,11] + 23 e[10,12] + 24 e[10,13] + 25 e[10,14] + 26 e[10,15]
   + 27 e[10,16] + 28 e[10,17] + 29 e[10,18] + 30 e[10,19] + 12 e[11,0]
   + 13 e[11,1] + 14 e[11,2] + 15 e[11,3] + 16 e[11,4] + 17 e[11,5]
   + 18 e[11,6] + 19 e[11,7] + 20 e[11,8] + 21 e[11,9] + 22 e[11,10]
   + 24 e[11,12] + 25 e[11,13] + 26 e[11,14] + 27 e[11,15] + 28 e[11,16]
   + 29 e[11,17] + 30 e[11,18] + 31 e[11,19] + 13 e[12,0] + 14 e[12,1]
   + 15 e[12,2] + 16 e[12,3] + 17 e[12,4] + 18 e[12,5] + 19 e[12,6]
   + 20 e[12,7] + 21 e[12,8] + 22 e[12,9] + 23 e[12,10] + 24 e[12,11]
   + 26 e[12,13] + 27 e[12,14] + 28 e[12,15] + 29 e[12,16] + 30 e[12,17]
   + 31 e[12,18] + 32 e[12,19] + 14 e[13,0] + 15 e[13,1] + 16 e[13,2]
   + 17 e[13,3] + 18 e[13,4] + 19 e[13,5] + 20 e[13,6] + 21 e[13,7]
   + 22 e[13,8] + 23 e[13,9] + 24 e[13,10] + 25 e[13,11] + 26 e[13,12]
   + 28 e[13,14] + 29 e[13,15] + 30 e[13,16] + 31 e[13,17] + 32 e[13,18]
   + 33 e[13,19] + 15 e[14,0] + 16 e[14,1] + 17 e[14,2] + 18 e[14,3]
   + 19 e[14,4] + 20 e[14,5] + 21 e[14,6] + 22 e[14,7] + 23 e[14,8]
   + 24 e[14,9] + 25 e[14,10] + 26 e[14,11] + 27 e[14,12] + 28 e[14,13]
   + 30 e[14,15] + 31 e[14,16] + 32 e[14,17] + 33 e[14,18] + 34 e[14,19]
   + 16 e[15,0] + 17 e[15,1] + 18 e[15,2] + 19 e[15,3] + 20 e[15,4]
   + 21 e[15,5] + 22 e[15,6] + 23 e[15,7] + 24 e[15,8] + 25 e[15,9]
   + 26 e[15,10] + 27 e[15,11] + 28 e[15,12] + 29 e[15,13] + 30 e[15,14]
   + 32 e[15,16] + 33 e[15,17] + 34 e[15,18] + 35 e[15,19] + 17 e[16,0]
   + 18 e[16,1] + 19 e[16,2] + 20 e[16,3] + 21 e[16,4] + 22 e[16,5]
   + 23 e[16,6] + 24 e[16,7] + 25 e[16,8] + 26 e[16,9] + 27 e[16,10]
   + 28 e[16,11] + 29 e[16,12] + 30 e[16,13] + 31 e[16,14] + 32 e[16,15]
   + 34 e[16,17] + 35 e[16,18] + 36 e[16,19] + 18 e[17,0] + 19 e[17,1]
   + 20 e[17,2] + 21 e[17,3] + 22 e[17,4] + 23 e[17,5] + 24 e[17,6]
   + 25 e[17,7] + 26 e[17,8] + 27 e[17,9] + 28 e[17,10] + 29 e[17,11]
   + 30 e[17,12] + 31 e[17,13] + 32 e[17,14] + 33 e[17,15] + 34 e[17,16]
   + 36 e[17,18] + 37 e[17,19] + 19 e[18,0] + 20 e[18,1] + 21 e[18,2]
   + 22 e[18,3] + 23 e[18,4] + 24 e[18,5] + 25 e[18,6] + 26 e[18,7]
   + 27 e[18,8] + 28 e[18,9] + 29 e[18,10] + 30 e[18,11] + 31 e[18,12]
   + 32 e[18,13] + 33 e[18,14] + 34 e[18,15] + 35 e[18,16] + 36 e[18,17]
   + 38 e[18,19] + 20 e[19,0] + 21 e[19,1] + 22 e[19,2] + 23 e[19,3]
   + 24 e[19,4] + 25 e[19,5] + 26 e[19,6] + 27 e[19,7] + 28 e[19,8]
   + 29 e[19,9] + 30 e[19,10] + 31 e[19,11] + 32 e[19,12] + 33 e[19,13]
   + 34 e[19,14] + 35 e[19,15] + 36 e[19,16] + 37 e[19,17] + 38 e[19,18]
Subject To
 R0: e[0,1] + e[0,2] + e[0,3] + e[0,4] + e[0,5] + e[0,6] + e[0,7] + e[0,8]
   + e[0,9] + e[0,10] + e[0,11] + e[0,12] + e[0,13] + e[0,14] + e[0,15]
   + e[0,16] + e[0,17] + e[0,18] + e[0,19] = 1
 R1: e[1,0] + e[1,2] + e[1,3] + e[1,4] + e[1,5] + e[1,6] + e[1,7] + e[1,8]
   + e[1,9] + e[1,10] + e[1,11] + e[1,12] + e[1,13] + e[1,14] + e[1,15]
   + e[1,16] + e[1,17] + e[1,18] + e[1,19] = 1
 R2: e[2,0] + e[2,1] + e[2,3] + e[2,4] + e[2,5] + e[2,6] + e[2,7] + e[2,8]
   + e[2,9] + e[2,10] + e[2,11] + e[2,12] + e[2,13] + e[2,14] + e[2,15]
   + e[2,16] + e[2,17] + e[2,18] + e[2,19] = 1
 R3: e[3,0] + e[3,1] + e[3,2] + e[3,4] + e[3,5] + e[3,6] + e[3,7] + e[3,8]
   + e[3,9] + e[3,10] + e[3,11] + e[3,12] + e[3,13] + e[3,14] + e[3,15]
   + e[3,16] + e[3,17] + e[3,18] + e[3,19] = 1
 R4: e[4,0] + e[4,1] + e[4,2] + e[4,3] + e[4,5] + e[4,6] + e[4,7] + e[4,8]
   + e[4,9] + e[4,10] + e[4,11] + e[4,12] + e[4,13] + e[4,14] + e[4,15]
   + e[4,16] + e[4,17] + e[4,18] + e[4,19] = 1
 R5: e[5,0] + e[5,1] + e[5,2] + e[5,3] + e[5,4] + e[5,6] + e[5,7] + e[5,8]
   + e[5,9] + e[5,10] + e[5,11] + e[5,12] + e[5,13] + e[5,14] + e[5,15]
   + e[5,16] + e[5,17] + e[5,18] + e[5,19] = 1
 R6: e[6,0] + e[6,1] + e[6,2] + e[6,3] + e[6,4] + e[6,5] + e[6,7] + e[6,8]
   + e[6,9] + e[6,10] + e[6,11] + e[6,12] + e[6,13] + e[6,14] + e[6,15]
   + e[6,16] + e[6,17] + e[6,18] + e[6,19] = 1
 R7: e[7,0] + e[7,1] + e[7,2] + e[7,3] + e[7,4] + e[7,5] + e[7,6] + e[7,8]
   + e[7,9] + e[7,10] + e[7,11] + e[7,12] + e[7,13] + e[7,14] + e[7,15]
   + e[7,16] + e[7,17] + e[7,18] + e[7,19] = 1
 R8: e[8,0] + e[8,1] + e[8,2] + e[8,3] + e[8,4] + e[8,5] + e[8,6] + e[8,7]
   + e[8,9] + e[8,10] + e[8,11] + e[8,12] + e[8,13] + e[8,14] + e[8,15]
   + e[8,16] + e[8,17] + e[8,18] + e[8,19] = 1
 R9: e[9,0] + e[9,1] + e[9,2] + e[9,3] + e[9,4] + e[9,5] + e[9,6] + e[9,7]
   + e[9,8] + e[9,10] + e[9,11] + e[9,12] + e[9,13] + e[9,14] + e[9,15]
   + e[9,16] + e[9,17] + e[9,18] + e[9,19] = 1
 R10: e[10,0] + e[10,1] + e[10,2] + e[10,3] + e[10,4] + e[10,5] + e[10,6]
   + e[10,7] + e[10,8] + e[10,9] + e[10,11] + e[10,12] + e[10,13]
   + e[10,14] + e[10,15] + e[10,16] + e[10,17] + e[10,18] + e[10,19] = 1
 R11: e[11,0] + e[11,1] + e[11,2] + e[11,3] + e[11,4] + e[11,5] + e[11,6]
   + e[11,7] + e[11,8] + e[11,9] + e[11,10] + e[11,12] + e[11,13]
   + e[11,14] + e[11,15] + e[11,16] + e[11,17] + e[11,18] + e[11,19] = 1
 R12: e[12,0] + e[12,1] + e[12,2] + e[12,3] + e[12,4] + e[12,5] + e[12,6]
   + e[12,7] + e[12,8] + e[12,9] + e[12,10] + e[12,11] + e[12,13]
   + e[12,14] + e[12,15] + e[12,16] + e[12,17] + e[12,18] + e[12,19] = 1
 R13: e[13,0] + e[13,1] + e[13,2] + e[13,3] + e[13,4] + e[13,5] + e[13,6]
   + e[13,7] + e[13,8] + e[13,9] + e[13,10] + e[13,11] + e[13,12]
   + e[13,14] + e[13,15] + e[13,16] + e[13,17] + e[13,18] + e[13,19] = 1
 R14: e[14,0] + e[14,1] + e[14,2] + e[14,3] + e[14,4] + e[14,5] + e[14,6]
   + e[14,7] + e[14,8] + e[14,9] + e[14,10] + e[14,11] + e[14,12]
   + e[14,13] + e[14,15] + e[14,16] + e[14,17] + e[14,18] + e[14,19] = 1
 R15: e[15,0] + e[15,1] + e[15,2] + e[15,3] + e[15,4] + e[15,5] + e[15,6]
   + e[15,7] + e[15,8] + e[15,9] + e[15,10] + e[15,11] + e[15,12]
   + e[15,13] + e[15,14] + e[15,16] + e[15,17] + e[15,18] + e[15,19] = 1
 R16: e[16,0] + e[16,1] + e[16,2] + e[16,3] + e[16,4] + e[16,5] + e[16,6]
   + e[16,7] + e[16,8] + e[16,9] + e[16,10] + e[16,11] + e[16,12]
   + e[16,13] + e[16,14] + e[16,15] + e[16,17] + e[16,18] + e[16,19] = 1
 R17: e[17,0] + e[17,1] + e[17,2] + e[17,3] + e[17,4] + e[17,5] + e[17,6]
   + e[17,7] + e[17,8] + e[17,9] + e[17,10] + e[17,11] + e[17,12]
   + e[17,13] + e[17,14] + e[17,15] + e[17,16] + e[17,18] + e[17,19] = 1
 R18: e[18,0] + e[18,1] + e[18,2] + e[18,3] + e[18,4] + e[18,5] + e[18,6]
   + e[18,7] + e[18,8] + e[18,9] + e[18,10] + e[18,11] + e[18,12]
   + e[18,13] + e[18,14] + e[18,15] + e[18,16] + e[18,17] + e[18,19] = 1
 R19: e[19,0] + e[19,1] + e[19,2] + e[19,3] + e[19,4] + e[19,5] + e[19,6]
   + e[19,7] + e[19,8] + e[19,9] + e[19,10] + e[19,11] + e[19,12]
   + e[19,13] + e[19,14] + e[19,15] + e[19,16] + e[19,17] + e[19,18] = 1
 R20: e[1,0] + e[2,0] + e[3,0] + e[4,0] + e[5,0] + e[6,0] + e[7,0] + e[8,0]
   + e[9,0] + e[10,0] + e[11,0] + e[12,0] + e[13,0] + e[14,0] + e[15,0]
   + e[16,0] + e[17,0] + e[18,0] + e[19,0] = 1
 R21: e[0,1] + e[2,1] + e[3,1] + e[4,1] + e[5,1] + e[6,1] + e[7,1] + e[8,1]
   + e[9,1] + e[10,1] + e[11,1] + e[12,1] + e[13,1] + e[14,1] + e[15,1]
   + e[16,1] + e[17,1] + e[18,1] + e[19,1] = 1
 R22: e[0,2] + e[1,2] + e[3,2] + e[4,2] + e[5,2] + e[6,2] + e[7,2] + e[8,2]
   + e[9,2] + e[10,2] + e[11,2] + e[12,2] + e[13,2] + e[14,2] + e[15,2]
   + e[16,2] + e[17,2] + e[18,2] + e[19,2] = 1
 R23: e[0,3] + e[1,3] + e[2,3] + e[4,3] + e[5,3] + e[6,3] + e[7,3] + e[8,3]
   + e[9,3] + e[10,3] + e[11,3] + e[12,3] + e[13,3] + e[14,3] + e[15,3]
   + e[16,3] + e[17,3] + e[18,3] + e[19,3] = 1
 R24: e[0,4] + e[1,4] + e[2,4] + e[3,4] + e[5,4] + e[6,4] + e[7,4] + e[8,4]
   + e[9,4] + e[10,4] + e[11,4] + e[12,4] + e[13,4] + e[14,4] + e[15,4]
   + e[16,4] + e[17,4] + e[18,4] + e[19,4] = 1
 R25: e[0,5] + e[1,5] + e[2,5] + e[3,5] + e[4,5] + e[6,5] + e[7,5] + e[8,5]
   + e[9,5] + e[10,5] + e[11,5] + e[12,5] + e[13,5] + e[14,5] + e[15,5]
   + e[16,5] + e[17,5] + e[18,5] + e[19,5] = 1
 R26: e[0,6] + e[1,6] + e[2,6] + e[3,6] + e[4,6] + e[5,6] + e[7,6] + e[8,6]
   + e[9,6] + e[10,6] + e[11,6] + e[12,6] + e[13,6] + e[14,6] + e[15,6]
   + e[16,6] + e[17,6] + e[18,6] + e[19,6] = 1
 R27: e[0,7] + e[1,7] + e[2,7] + e[3,7] + e[4,7] + e[5,7] + e[6,7] + e[8,7]
   + e[9,7] + e[10,7] + e[11,7] + e[12,7] + e[13,7] + e[14,7] + e[15,7]
   + e[16,7] + e[17,7] + e[18,7] + e[19,7] = 1
 R28: e[0,8] + e[1,8] + e[2,8] + e[3,8] + e[4,8] + e[5,8] + e[6,8] + e[7,8]
   + e[9,8] + e[10,8] + e[11,8] + e[12,8] + e[13,8] + e[14,8] + e[15,8]
   + e[16,8] + e[17,8] + e[18,8] + e[19,8] = 1
 R29: e[0,9] + e[1,9] + e[2,9] + e[3,9] + e[4,9] + e[5,9] + e[6,9] + e[7,9]
   + e[8,9] + e[10,9] + e[11,9] + e[12,9] + e[13,9] + e[14,9] + e[15,9]
   + e[16,9] + e[17,9] + e[18,9] + e[19,9] = 1
 R30: e[0,10] + e[1,10] + e[2,10] + e[3,10] + e[4,10] + e[5,10] + e[6,10]
   + e[7,10] + e[8,10] + e[9,10] + e[11,10] + e[12,10] + e[13,10]
   + e[14,10] + e[15,10] + e[16,10] + e[17,10] + e[18,10] + e[19,10] = 1
 R31: e[0,11] + e[1,11] + e[2,11] + e[3,11] + e[4,11] + e[5,11] + e[6,11]
   + e[7,11] + e[8,11] + e[9,11] + e[10,11] + e[12,11] + e[13,11]
   + e[14,11] + e[15,11] + e[16,11] + e[17,11] + e[18,11] + e[19,11] = 1
 R32: e[0,12] + e[1,12] + e[2,12] + e[3,12] + e[4,12] + e[5,12] + e[6,12]
   + e[7,12] + e[8,12] + e[9,12] + e[10,12] + e[11,12] + e[13,12]
   + e[14,12] + e[15,12] + e[16,12] + e[17,12] + e[18,12] + e[19,12] = 1
 R33: e[0,13] + e[1,13] + e[2,13] + e[3,13] + e[4,13] + e[5,13] + e[6,13]
   + e[7,13] + e[8,13] + e[9,13] + e[10,13] + e[11,13] + e[12,13]
   + e[14,13] + e[15,13] + e[16,13] + e[17,13] + e[18,13] + e[19,13] = 1
 R34: e[0,14] + e[1,14] + e[2,14] + e[3,14] + e[4,14] + e[5,14] + e[6,14]
   + e[7,14] + e[8,14] + e[9,14] + e[10,14] + e[11,14] + e[12,14]
   + e[13,14] + e[15,14] + e[16,14] + e[17,14] + e[18,14] + e[19,14] = 1
 R35: e[0,15] + e[1,15] + e[2,15] + e[3,15] + e[4,15] + e[5,15] + e[6,15]
   + e[7,15] + e[8,15] + e[9,15] + e[10,15] + e[11,15] + e[12,15]
   + e[13,15] + e[14,15] + e[16,15] + e[17,15] + e[18,15] + e[19,15] = 1
 R36: e[0,16] + e[1,16] + e[2,16] + e[3,16] + e[4,16] + e[5,16] + e[6,16]
   + e[7,16] + e[8,16] + e[9,16] + e[10,16] + e[11,16] + e[12,16]
   + e[13,16] + e[14,16] + e[15,16] + e[17,16] + e[18,16] + e[19,16] = 1
 R37: e[0,17] + e[1,17] + e[2,17] + e[3,17] + e[4,17] + e[5,17] + e[6,17]
   + e[7,17] + e[8,17] + e[9,17] + e[10,17] + e[11,17] + e[12,17]
   + e[13,17] + e[14,17] + e[15,17] + e[16,17] + e[18,17] + e[19,17] = 1
 R38: e[0,18] + e[1,18] + e[2,18] + e[3,18] + e[4,18] + e[5,18] + e[6,18]
   + e[7,18] + e[8,18] + e[9,18] + e[10,18] + e[11,18] + e[12,18]
   + e[13,18] + e[14,18] + e[15,18] + e[16,18] + e[17,18] + e[19,18] = 1
 R39: e[0,19] + e[1,19] + e[2,19] + e[3,19] + e[4,19] + e[5,19] + e[6,19]
   + e[7,19] + e[8,19] + e[9,19] + e[10,19] + e[11,19] + e[12,19]
   + e[13,19] + e[14,19] + e[15,19] + e[16,19] + e[17,19] + e[18,19] = 1
Bounds
Binaries
 e[0,1] e[0,2] e[0,3] e[0,4] e[0,5] e[0,6] e[0,7] e[0,8] e[0,9] e[0,10]
 e[0,11] e[0,12] e[0,13] e[0,14] e[0,15] e[0,16] e[0,17] e[0,18] e[0,19]
 e[1,0] e[1,2] e[1,3] e[1,4] e[1,5] e[1,6] e[1,7] e[1,8] e[1,9] e[1,10]
 e[1,11] e[1,12] e[1,13] e[1,14] e[1,15] e[1,16] e[1,17] e[1,18] e[1,19]
 e[2,0] e[2,1] e[2,3] e[2,4] e[2,5] e[2,6] e[2,7] e[2,8] e[2,9] e[2,10]
 e[2,11] e[2,12] e[2,13] e[2,14] e[2,15] e[2,16] e[2,17] e[2,18] e[2,19]
 e[3,0] e[3,1] e[3,2] e[3,4] e[3,5] e[3,6] e[3,7] e[3,8] e[3,9] e[3,10]
 e[3,11] e[3,12] e[3,13] e[3,14] e[3,15] e[3,16] e[3,17] e[3,18] e[3,19]
 e[4,0] e[4,1] e[4,2] e[4,3] e[4,5] e[4,6] e[4,7] e[4,8] e[4,9] e[4,10]
 e[4,11] e[4,12] e[4,13] e[4,14] e[4,15] e[4,16] e[4,17] e[4,18] e[4,19]
 e[5,0] e[5,1] e[5,2] e[5,3] e[5,4] e[5,6] e[5,7] e[5,8] e[5,9] e[5,10]
 e[5,11] e[5,12] e[5,13] e[5,14] e[5,15] e[5,16] e[5,17] e[5,18] e[5,19]
 e[6,0] e[6,1] e[6,2] e[6,3] e[6,4] e[6,5] e[6,7] e[6,8] e[6,9] e[6,10]
 e[6,11] e[6,12] e[6,13] e[6,14] e[6,15] e[6,16] e[6,17] e[6,18] e[6,19]
 e[7,0] e[7,1] e[7,2] e[7,3] e[7,4] e[7,5] e[7,6] e[7,8] e[7,9] e[7,10]
 e[7,11] e[7,12] e[7,13] e[7,14] e[7,15] e[7,16] e[7,17] e[7,18] e[7,19]
 e[8,0] e[8,1] e[8,2] e[8,3] e[8,4] e[8,5] e[8,6] e[8,7] e[8,9] e[8,10]
 e[8,11] e[8,12] e[8,13] e[8,14] e[8,15] e[8,16] e[8,17] e[8,18] e[8,19]
 e[9,0] e[9,1] e[9,2] e[9,3] e[9,4] e[9,5] e[9,6] e[9,7] e[9,8] e[9,10]
 e[9,11] e[9,12] e[9,13] e[9,14] e[9,15] e[9,16] e[9,17] e[9,18] e[9,19]
 e[10,0] e[10,1] e[10,2] e[10,3] e[10,4] e[10,5] e[10,6] e[10,7] e[10,8]
 e[10,9] e[10,11] e[10,12] e[10,13] e[10,14] e[10,15] e[10,16] e[10,17]
 e[10,18] e[10,19] e[11,0] e[11,1] e[11,2] e[11,3] e[11,4] e[11,5] e[11,6]
 e[11,7] e[11,8] e[11,9] e[11,10] e[11,12] e[11,13] e[11,14] e[11,15]
 e[11,16] e[11,17] e[11,18] e[11,19] e[12,0] e[12,1] e[12,2] e[12,3]
 e[12,4] e[12,5] e[12,6] e[12,7] e[12,8] e[12,9] e[12,10] e[12,11] e[12,13]
 e[12,14] e[12,15] e[12,16] e[12,17] e[12,18] e[12,19] e[13,0] e[13,1]
 e[13,2] e[13,3] e[13,4] e[13,5] e[13,6] e[13,7] e[13,8] e[13,9] e[13,10]
 e[13,11] e[13,12] e[13,14] e[13,15] e[13,16] e[13,17] e[13,18] e[13,19]
 e[14,0] e[14,1] e[14,2] e[14,3] e[14,4] e[14,5] e[14,6] e[14,7] e[14,8]
 e[14,9] e[14,10] e[14,11] e[14,12] e[14,13] e[14,15] e[14,16] e[14,17]
 e[14,18] e[14,19] e[15,0] e[15,1] e[15,2] e[15,3] e[15,4] e[15,5] e[15,6]
 e[15,7] e[15,8] e[15,9] e[15,10] e[15,11] e[15,12] e[15,13] e[15,14]
 e[15,16] e[15,17] e[15,18] e[15,19] e[16,0] e[16,1] e[16,2] e[16,3]
 e[16,4] e[16,5] e[16,6] e[16,7] e[16,8] e[16,9] e[16,10] e[16,11] e[16,12]
 e[16,13] e[16,14] e[16,15] e[16,17] e[16,18] e[16,19] e[17,0] e[17,1]
 e[17,2] e[17,3] e[17,4] e[17,5] e[17,6] e[17,7] e[17,8] e[17,9] e[17,10]
 e[17,11] e[17,12] e[17,13] e[17,14] e[17,15] e[17,16] e[17,18] e[17,19]
 e[18,0] e[18,1] e[18,2] e[18,3] e[18,4] e[18,5] e[18,6] e[18,7] e[18,8]
 e[18,9] e[18,10] e[18,11] e[18,12] e[18,13] e[18,14] e[18,15] e[18,16]
 e[18,17] e[18,19] e[19,0] e[19,1] e[19,2] e[19,3] e[19,4] e[19,5] e[19,6]
 e[19,7] e[19,8] e[19,9] e[19,10] e[19,11] e[19,12] e[19,13] e[19,14]
 e[19,15] e[19,16] e[19,17] e[19,18]
End
